
Gurobi 9.5.1 (linux64) logging started Thu 11 Aug 2022 03:47:23 PM MST

Set parameter LogFile to value "/home/local/ASUAD/kmajd1/NNRepLayer_v2/demos/walking_example/dynamic_constraint/repair_net/logs/opt_log_8_11_2022_14_47_58.log"
Set parameter SolFiles to value "/home/local/ASUAD/kmajd1/NNRepLayer_v2/demos/walking_example/dynamic_constraint/repair_net/sol/sol__8_11_2022_14_47_58/solution"
Gurobi Optimizer version 9.5.1 build v9.5.1rc2 (linux64)
Thread count: 48 physical cores, 96 logical processors, using up to 12 threads
Optimize a model with 902444 rows, 644584 columns and 15673660 nonzeros
Model fingerprint: 0x9a36785b
Model has 1000 quadratic objective terms
Variable types: 388584 continuous, 256000 integer (256000 binary)
Coefficient statistics:
  Matrix range     [3e-05, 2e+02]
  Objective range  [9e-05, 1e+00]
  QObjective range [2e-02, 2e-02]
  Bounds range     [1e-04, 1e+03]
  RHS range        [1e-06, 2e+02]

Concurrent MIP optimizer: 3 concurrent instances (4 threads per instance)

Presolve removed 0 rows and 70 columns
Presolve time: 2.56s

Instance 0 was solved

Explored 0 nodes (0 simplex iterations) in 3.52 seconds (0.55 work units)
Thread count was 1 (of 96 available processors)

Solution count 0

Model is infeasible
Best objective -, best bound -, gap -
